scripts/allData/IBLP-FIS/lseu-0.900000.mps
* ENCODING=ISO-8859-1
NAME          ./miplib3/lseu
ROWS
 N  R100    
 L  R101    
 L  R102    
 L  R103    
 L  R104    
 L  R105    
 L  R106    
 L  R107    
 L  R108    
 L  R109    
 L  R110    
 L  R111    
 L  R112    
 L  R113    
 L  R114    
 L  R115    
 L  R116    
 L  R117    
 L  R118    
 L  R119    
 L  R120    
 L  R121    
 L  R122    
 L  R123    
 L  R124    
 L  R125    
 L  R126    
 L  R127    
 L  R128    
COLUMNS
    MARK0000  'MARKER'                 'INTORG'
    C101      R100                            7
    C101      R119                          525
    C101      R120                         -525
    C101      R122                         -525
    C101      R123                         -525
    C102      R100                           10
    C102      R119                          500
    C102      R120                         -500
    C102      R122                         -500
    C102      R123                         -500
    C103      R100                          179
    C103      R101                            1
    C103      R119                          475
    C103      R120                         -475
    C103      R124                         -475
    C103      R125                         -475
    C104      R100                          186
    C104      R101                            1
    C104      R119                          475
    C104      R120                         -475
    C104      R122                         -475
    C104      R123                         -475
    C105      R100                          179
    C105      R101                            1
    C105      R119                          475
    C105      R120                         -475
    C105      R122                         -190
    C105      R123                         -190
    C105      R124                         -285
    C105      R125                         -285
    C106      R102                            1
    C106      R118                         -450
    C107      R102                            1
    C107      R124                         -450
    C107      R125                         -450
    C108      R100                            6
    C108      R102                            1
    C108      R122                         -450
    C108      R123                         -450
    C109      R102                            1
    C109      R122                         -165
    C109      R123                         -165
    C109      R124                         -285
    C109      R125                         -285
    C110      R102                            1
    C110      R124                         -150
    C110      R125                         -150
    C111      R100                          164
    C111      R103                            1
    C111      R118                         -435
    C112      R100                          164
    C112      R103                            1
    C112      R124                         -435
    C112      R125                         -435
    C113      R100                          170
    C113      R103                            1
    C113      R119                          435
    C113      R120                         -435
    C113      R123                         -435
    C114      R100                          164
    C114      R103                            1
    C114      R119                          435
    C114      R120                         -435
    C114      R121                         -435
    C115      R100                          346
    C115      R104                            1
    C115      R124                         -435
    C115      R125                         -435
    C116      R100                          346
    C116      R104                            1
    C116      R119                          435
    C116      R120                         -435
    C116      R125                         -435
    C117      R100                          248
    C117      R105                            1
    C117      R119                          435
    C117      R120                         -435
    C117      R124                         -435
    C117      R125                         -435
    C118      R100                          253
    C118      R105                            1
    C118      R119                          435
    C118      R120                         -435
    C118      R122                         -435
    C118      R123                         -435
    C119      R100                          248
    C119      R105                            1
    C119      R119                          435
    C119      R120                         -435
    C119      R122                         -300
    C119      R123                         -300
    C119      R124                         -135
    C119      R125                         -135
    C120      R100                          346
    C120      R106                            1
    C120      R118                         -435
    C121      R100                          346
    C121      R106                            1
    C121      R123                         -400
    C122      R100                          346
    C122      R106                            1
    C122      R121                         -400
    C123      R100                          346
    C123      R106                            1
    C123      R124                         -100
    C123      R125                         -100
    C123      R127                         -300
    C124      R100                          160
    C124      R107                            1
    C124      R124                         -400
    C124      R125                         -400
    C125      R100                          161
    C125      R107                            1
    C125      R122                         -400
    C125      R123                         -400
    C126      R100                          160
    C126      R107                            1
    C126      R122                         -115
    C126      R123                         -115
    C126      R124                         -285
    C126      R125                         -285
    C127      R100                          160
    C127      R107                            1
    C127      R119                          425
    C127      R120                         -425
    C127      R125                         -425
    C128      R100                          161
    C128      R107                            1
    C128      R119                          425
    C128      R120                         -425
    C128      R123                         -425
    C129      R100                          160
    C129      R107                            1
    C129      R119                          425
    C129      R120                         -425
    C129      R123                         -140
    C129      R125                         -285
    C130      R100                          160
    C130      R107                            1
    C130      R124                         -100
    C130      R125                         -100
    C130      R126                         -300
    C130      R127                         -300
    C131      R100                          278
    C131      R108                            1
    C131      R118                         -350
    C132      R100                          278
    C132      R108                            1
    C132      R124                         -350
    C132      R125                         -350
    C133      R100                          278
    C133      R108                            1
    C133      R121                         -350
    C134      R100                           86
    C134      R109                            1
    C134      R122                         -330
    C134      R123                         -330
    C135      R100                           86
    C135      R109                            1
    C135      R126                         -330
    C135      R127                         -330
    C136      R100                           86
    C136      R109                            1
    C136      R119                          330
    C136      R120                         -330
    C136      R124                         -330
    C136      R125                         -330
    C137      R100                           86
    C137      R109                            1
    C137      R119                          330
    C137      R120                         -330
    C137      R123                         -330
    C138      R100                           86
    C138      R109                            1
    C138      R119                          330
    C138      R120                         -330
    C138      R121                         -330
    C139      R100                           86
    C139      R119                          330
    C139      R120                         -330
    C139      R122                         -330
    C139      R123                         -330
    C140      R100                          188
    C140      R110                            1
    C140      R122                         -330
    C140      R123                         -330
    C141      R100                          188
    C141      R110                            1
    C141      R119                          330
    C141      R120                         -330
    C141      R124                         -330
    C141      R125                         -330
    C142      R100                          188
    C142      R110                            1
    C142      R119                          330
    C142      R120                         -330
    C142      R121                         -330
    C143      R100                           85
    C143      R111                            1
    C143      R122                         -325
    C143      R123                         -325
    C144      R100                           85
    C144      R111                            1
    C144      R126                         -325
    C144      R127                         -325
    C145      R100                           85
    C145      R111                            1
    C145      R119                          325
    C145      R120                         -325
    C145      R124                         -325
    C145      R125                         -325
    C146      R100                           85
    C146      R111                            1
    C146      R119                          325
    C146      R120                         -325
    C146      R123                         -325
    C147      R100                           85
    C147      R111                            1
    C147      R119                          325
    C147      R120                         -325
    C147      R121                         -325
    C148      R100                           78
    C148      R112                            1
    C148      R122                         -300
    C148      R123                         -300
    C149      R100                           78
    C149      R112                            1
    C149      R119                          300
    C149      R120                         -300
    C149      R124                         -300
    C149      R125                         -300
    C150      R100                           78
    C150      R112                            1
    C150      R119                          300
    C150      R120                         -300
    C150      R121                         -300
    C151      R100                           78
    C151      R112                            1
    C151      R128                         -300
    C152      R100                           78
    C152      R113                            1
    C152      R122                         -300
    C152      R123                         -300
    C153      R100                           78
    C153      R113                            1
    C153      R126                         -300
    C153      R127                         -300
    C154      R100                           78
    C154      R113                            1
    C154      R119                          300
    C154      R120                         -300
    C154      R124                         -300
    C154      R125                         -300
    C155      R100                           78
    C155      R113                            1
    C155      R119                          300
    C155      R120                         -300
    C155      R123                         -300
    C156      R100                           78
    C156      R113                            1
    C156      R119                          300
    C156      R120                         -300
    C156      R121                         -300
    C157      R100                          171
    C157      R114                            1
    C157      R122                         -300
    C157      R123                         -300
    C158      R100                          171
    C158      R114                            1
    C158      R126                         -300
    C158      R127                         -300
    C159      R100                          171
    C159      R114                            1
    C159      R119                          300
    C159      R120                         -300
    C159      R123                         -300
    C160      R100                          171
    C160      R114                            1
    C160      R119                          300
    C160      R120                         -300
    C160      R121                         -300
    C161      R100                          163
    C161      R115                            1
    C161      R119                          285
    C161      R120                         -285
    C161      R124                         -285
    C161      R125                         -285
    C162      R100                          163
    C162      R115                            1
    C162      R119                          285
    C162      R120                         -285
    C162      R122                         -285
    C162      R123                         -285
    C163      R100                          163
    C163      R115                            1
    C163      R128                         -285
    C164      R100                           69
    C164      R116                            1
    C164      R119                          265
    C164      R120                         -265
    C164      R124                         -265
    C164      R125                         -265
    C165      R100                           69
    C165      R116                            1
    C165      R119                          265
    C165      R120                         -265
    C165      R122                         -265
    C165      R123                         -265
    C166      R100                          183
    C166      R117                            1
    C166      R118                         -230
    C167      R100                          183
    C167      R117                            1
    C167      R124                         -230
    C167      R125                         -230
    C168      R100                          183
    C168      R117                            1
    C168      R119                          230
    C168      R120                         -230
    C168      R125                         -230
    C169      R100                          183
    C169      R117                            1
    C169      R119                          230
    C169      R120                         -230
    C169      R123                         -230
    C170      R100                           49
    C170      R119                          190
    C170      R120                         -190
    C170      R122                         -190
    C170      R123                         -190
    C171      R100                          183
    C171      R117                            1
    C172      R100                          258
    C172      R118                         -200
    C173      R100                          517
    C173      R118                         -400
    C174      R100                          250
    C174      R126                         -200
    C174      R127                         -200
    C175      R100                          500
    C175      R126                         -400
    C175      R127                         -400
    C176      R100                          250
    C176      R127                         -200
    C177      R100                          500
    C177      R127                         -400
    C178      R100                          159
    C178      R119                          200
    C178      R120                         -200
    C178      R124                         -200
    C178      R125                         -200
    C179      R100                          318
    C179      R119                          400
    C179      R120                         -400
    C179      R124                         -400
    C179      R125                         -400
    C180      R100                          159
    C180      R119                          200
    C180      R120                         -200
    C180      R125                         -200
    C181      R100                          318
    C181      R119                          400
    C181      R120                         -400
    C181      R125                         -400
    C182      R100                          159
    C182      R119                          200
    C182      R120                         -200
    C182      R122                         -200
    C182      R123                         -200
    C183      R100                          318
    C183      R119                          400
    C183      R120                         -400
    C183      R122                         -400
    C183      R123                         -400
    C184      R100                          159
    C184      R119                          200
    C184      R120                         -200
    C184      R123                         -200
    C185      R100                          318
    C185      R119                          400
    C185      R120                         -400
    C185      R123                         -400
    C186      R100                          114
    C186      R119                          200
    C186      R120                         -200
    C186      R121                         -200
    C187      R100                          228
    C187      R119                          400
    C187      R120                         -400
    C187      R121                         -400
    C188      R100                          159
    C188      R128                         -200
    C189      R100                          318
    C189      R128                         -400
    MARK0001  'MARKER'                 'INTEND'
RHS
    rhs       R101                            1
    rhs       R102                            1
    rhs       R103                            1
    rhs       R104                            1
    rhs       R105                            1
    rhs       R106                            1
    rhs       R107                            1
    rhs       R108                            1
    rhs       R109                            1
    rhs       R110                            1
    rhs       R111                            1
    rhs       R112                            1
    rhs       R113                            1
    rhs       R114                            1
    rhs       R115                            1
    rhs       R116                            1
    rhs       R117                            1
    rhs       R118                         -190
    rhs       R119                         2700
    rhs       R120                        -2600
    rhs       R121                         -630
    rhs       R122                         -900
    rhs       R123                        -1656
    rhs       R124                         -335
    rhs       R125                        -1026
    rhs       R126                         -150
    rhs       R127                         -500
    rhs       R128                         -270
BOUNDS
 UP bnd       C101                            1
 UP bnd       C102                            1
 UP bnd       C103                            1
 UP bnd       C104                            1
 UP bnd       C105                            1
 UP bnd       C106                            1
 UP bnd       C107                            1
 UP bnd       C108                            1
 UP bnd       C109                            1
 UP bnd       C110                            1
 UP bnd       C111                            1
 UP bnd       C112                            1
 UP bnd       C113                            1
 UP bnd       C114                            1
 UP bnd       C115                            1
 UP bnd       C116                            1
 UP bnd       C117                            1
 UP bnd       C118                            1
 UP bnd       C119                            1
 UP bnd       C120                            1
 UP bnd       C121                            1
 UP bnd       C122                            1
 UP bnd       C123                            1
 UP bnd       C124                            1
 UP bnd       C125                            1
 UP bnd       C126                            1
 UP bnd       C127                            1
 UP bnd       C128                            1
 UP bnd       C129                            1
 UP bnd       C130                            1
 UP bnd       C131                            1
 UP bnd       C132                            1
 UP bnd       C133                            1
 UP bnd       C134                            1
 UP bnd       C135                            1
 UP bnd       C136                            1
 UP bnd       C137                            1
 UP bnd       C138                            1
 UP bnd       C139                            1
 UP bnd       C140                            1
 UP bnd       C141                            1
 UP bnd       C142                            1
 UP bnd       C143                            1
 UP bnd       C144                            1
 UP bnd       C145                            1
 UP bnd       C146                            1
 UP bnd       C147                            1
 UP bnd       C148                            1
 UP bnd       C149                            1
 UP bnd       C150                            1
 UP bnd       C151                            1
 UP bnd       C152                            1
 UP bnd       C153                            1
 UP bnd       C154                            1
 UP bnd       C155                            1
 UP bnd       C156                            1
 UP bnd       C157                            1
 UP bnd       C158                            1
 UP bnd       C159                            1
 UP bnd       C160                            1
 UP bnd       C161                            1
 UP bnd       C162                            1
 UP bnd       C163                            1
 UP bnd       C164                            1
 UP bnd       C165                            1
 UP bnd       C166                            1
 UP bnd       C167                            1
 UP bnd       C168                            1
 UP bnd       C169                            1
 UP bnd       C170                            1
 UP bnd       C171                            1
 UP bnd       C172                            1
 UP bnd       C173                            1
 UP bnd       C174                            1
 UP bnd       C175                            1
 UP bnd       C176                            1
 UP bnd       C177                            1
 UP bnd       C178                            1
 UP bnd       C179                            1
 UP bnd       C180                            1
 UP bnd       C181                            1
 UP bnd       C182                            1
 UP bnd       C183                            1
 UP bnd       C184                            1
 UP bnd       C185                            1
 UP bnd       C186                            1
 UP bnd       C187                            1
 UP bnd       C188                            1
 UP bnd       C189                            1
ENDATA
