scripts/allData/IBLP-FIS/lseu-0.900000.txt
N 80
M 28
LC 0
LC 1
LC 2
LC 3
LC 4
LC 5
LC 6
LC 7
LC 8
LC 9
LC 10
LC 11
LC 12
LC 13
LC 14
LC 15
LC 16
LC 17
LC 18
LC 19
LC 20
LC 21
LC 22
LC 23
LC 24
LC 25
LC 26
LC 27
LC 28
LC 29
LC 30
LC 31
LC 32
LC 33
LC 34
LC 35
LC 36
LC 37
LC 38
LC 39
LC 40
LC 41
LC 42
LC 43
LC 44
LC 45
LC 46
LC 47
LC 48
LC 49
LC 50
LC 51
LC 52
LC 53
LC 54
LC 55
LC 56
LC 57
LC 58
LC 59
LC 60
LC 61
LC 62
LC 63
LC 64
LC 65
LC 66
LC 67
LC 68
LC 69
LC 70
LC 71
LC 72
LC 73
LC 74
LC 75
LC 76
LC 77
LC 78
LC 79
LR 0
LR 1
LR 2
LR 3
LR 4
LR 5
LR 6
LR 7
LR 8
LR 9
LR 10
LR 11
LR 12
LR 13
LR 14
LR 15
LR 16
LR 17
LR 18
LR 19
LR 20
LR 21
LR 22
LR 23
LR 24
LR 25
LR 26
LR 27
LO -7.000000
LO -10.000000
LO -179.000000
LO -186.000000
LO -179.000000
LO -0.000000
LO -0.000000
LO -6.000000
LO -0.000000
LO -0.000000
LO -164.000000
LO -164.000000
LO -170.000000
LO -164.000000
LO -346.000000
LO -346.000000
LO -248.000000
LO -253.000000
LO -248.000000
LO -346.000000
LO -346.000000
LO -346.000000
LO -346.000000
LO -160.000000
LO -161.000000
LO -160.000000
LO -160.000000
LO -161.000000
LO -160.000000
LO -160.000000
LO -278.000000
LO -278.000000
LO -278.000000
LO -86.000000
LO -86.000000
LO -86.000000
LO -86.000000
LO -86.000000
LO -86.000000
LO -188.000000
LO -188.000000
LO -188.000000
LO -85.000000
LO -85.000000
LO -85.000000
LO -85.000000
LO -85.000000
LO -78.000000
LO -78.000000
LO -78.000000
LO -78.000000
LO -78.000000
LO -78.000000
LO -78.000000
LO -78.000000
LO -78.000000
LO -171.000000
LO -171.000000
LO -171.000000
LO -171.000000
LO -163.000000
LO -163.000000
LO -163.000000
LO -69.000000
LO -69.000000
LO -183.000000
LO -183.000000
LO -183.000000
LO -183.000000
LO -49.000000
LO -183.000000
LO -258.000000
LO -517.000000
LO -250.000000
LO -500.000000
LO -250.000000
LO -500.000000
LO -159.000000
LO -318.000000
LO -159.000000
OS 1
